Copyright (C) 2013-2015, Filipe Brandao
Build (method = -2)
  #dp: 105942
  Step-3' Graph: 689 vertices and 54824 arcs (0.39s)
  Step-4' Graph: 678 vertices and 54802 arcs (0.41s)
  #V4/#V3 = 0.98
  #A4/#A3 = 1.00
Ready! (0.41s)
Optimize a model with 1029 rows, 54803 columns and 163057 nonzeros
Presolve removed 160 rows and 160 columns
Presolve time: 0.37s
Presolved: 869 rows, 54643 columns, 162210 nonzeros
Variable types: 0 continuous, 54643 integer (33975 binary)
Found heuristic solution: objective 352.0000000
Optimize a model with 869 rows, 54643 columns and 162210 nonzeros
Presolved: 869 rows, 54643 columns, 162210 nonzeros

Root barrier log...

Ordering time: 0.01s

Barrier statistics:
 AA' NZ     : 9.921e+04
 Factor NZ  : 2.365e+05 (roughly 24 MBytes of memory)
 Factor Ops : 8.471e+07 (less than 1 second per iteration)
 Threads    : 1

                  Objective                Residual
Iter       Primal          Dual         Primal    Dual     Compl     Time
   0   2.85192077e+04 -4.09690368e+05  5.20e+05 1.08e-01  3.80e+01     0s
   1   9.14562235e+03 -1.03274442e+05  6.12e+04 5.55e-16  4.99e+00     0s
   2   2.61822063e+03 -3.61862730e+04  8.42e+03 5.82e-03  8.70e-01     0s
   3   1.71184245e+03 -1.32379870e+04  1.26e+03 4.16e-03  2.08e-01     0s
   4   9.97029397e+02 -2.80963890e+03  3.20e+02 6.61e-04  5.11e-02     0s
   5   5.73958632e+02 -1.11894137e+03  1.03e+02 1.54e-04  2.02e-02     0s
   6   4.89636382e+02 -4.65371775e+02  7.02e+01 3.89e-16  1.14e-02     0s
   7   4.16513825e+02 -2.28790324e+02  4.55e+01 3.33e-16  7.43e-03     0s
   8   3.82234673e+02 -7.08356409e+01  3.59e+01 3.33e-16  5.22e-03     0s
   9   3.36624262e+02  8.61148546e+00  2.27e+01 3.24e-16  3.62e-03     0s
  10   3.15905719e+02  6.55488718e+01  1.72e+01 3.40e-16  2.72e-03     0s
  11   3.00103116e+02  8.67017911e+01  1.33e+01 3.33e-16  2.27e-03     0s
  12   2.83181772e+02  1.17213506e+02  1.04e+01 3.64e-16  1.75e-03     0s
  13   2.64006225e+02  1.42280503e+02  6.46e+00 3.33e-16  1.25e-03     0s
  14   2.51644568e+02  1.72870179e+02  4.25e+00 3.33e-16  8.01e-04     1s
  15   2.44319570e+02  1.91304956e+02  3.07e+00 2.94e-16  5.39e-04     1s
  16   2.35212533e+02  2.00220116e+02  1.47e+00 3.33e-16  3.45e-04     1s
  17   2.31553157e+02  2.04109885e+02  7.94e-01 3.33e-16  2.64e-04     1s
  18   2.31415314e+02  2.06539879e+02  7.51e-01 3.33e-16  2.39e-04     1s
  19   2.31001973e+02  2.12819070e+02  6.56e-01 4.44e-16  1.74e-04     1s
  20   2.29715820e+02  2.15041502e+02  3.66e-01 4.44e-16  1.38e-04     1s
  21   2.29489571e+02  2.17599616e+02  3.20e-01 4.44e-16  1.12e-04     1s
  22   2.28489477e+02  2.20473871e+02  1.22e-01 4.44e-16  7.43e-05     1s
  23   2.28117910e+02  2.21000915e+02  8.86e-02 4.44e-16  6.58e-05     1s
  24   2.27978604e+02  2.22299106e+02  7.68e-02 4.44e-16  5.25e-05     1s
  25   2.27415688e+02  2.23471560e+02  3.11e-02 4.44e-16  3.62e-05     1s
  26   2.27261278e+02  2.24289744e+02  2.36e-02 4.44e-16  2.73e-05     1s
  27   2.27072655e+02  2.24784622e+02  1.43e-02 3.33e-16  2.10e-05     1s
  28   2.26963372e+02  2.24919332e+02  9.65e-03 4.44e-16  1.87e-05     1s
  29   2.26942007e+02  2.25485243e+02  8.81e-03 4.44e-16  1.34e-05     1s
  30   2.26873439e+02  2.25559335e+02  6.87e-03 3.33e-16  1.20e-05     1s
  31   2.26790558e+02  2.25819445e+02  4.55e-03 3.41e-16  8.90e-06     1s
  32   2.26760423e+02  2.25991969e+02  3.84e-03 4.44e-16  7.04e-06     1s
  33   2.26707168e+02  2.26162846e+02  2.58e-03 3.33e-16  4.99e-06     1s
  34   2.26659449e+02  2.26213240e+02  1.29e-03 3.33e-16  4.08e-06     1s
  35   2.26645247e+02  2.26274825e+02  1.07e-03 2.86e-16  3.39e-06     1s
  36   2.26639354e+02  2.26320647e+02  9.57e-04 3.24e-16  2.92e-06     1s
  37   2.26626080e+02  2.26347252e+02  7.76e-04 3.33e-16  2.55e-06     1s
  38   2.26605898e+02  2.26390981e+02  5.11e-04 2.51e-16  1.97e-06     1s
  39   2.26595738e+02  2.26414091e+02  3.90e-04 2.87e-16  1.66e-06     1s
  40   2.26590962e+02  2.26435277e+02  3.41e-04 2.75e-16  1.42e-06     1s
  41   2.26587242e+02  2.26460810e+02  3.02e-04 2.43e-16  1.16e-06     1s
  42   2.26583150e+02  2.26467418e+02  2.47e-04 2.97e-16  1.06e-06     1s
  43   2.26573813e+02  2.26486320e+02  1.59e-04 3.33e-16  8.01e-07     1s
  44   2.26568419e+02  2.26504928e+02  1.09e-04 2.84e-16  5.81e-07     1s
  45   2.26564425e+02  2.26516499e+02  7.56e-05 2.66e-16  4.38e-07     1s
  46   2.26558543e+02  2.26534430e+02  2.96e-05 2.44e-16  2.21e-07     1s
  47   2.26555493e+02  2.26546194e+02  8.35e-06 2.82e-16  8.51e-08     1s
  48   2.26554973e+02  2.26550991e+02  5.51e-06 3.33e-16  3.64e-08     1s
  49   2.26554004e+02  2.26553865e+02  1.07e-07 3.21e-16  1.27e-09     1s
  50   2.26553941e+02  2.26553941e+02  9.60e-11 4.44e-16  2.82e-12     1s
  51   2.26553941e+02  2.26553941e+02  5.43e-10 3.33e-16  4.95e-15     1s

Barrier solved model in 51 iterations and 1.50 seconds
Optimal objective 2.26553941e+02


Root relaxation: objective 2.265539e+02, 773 iterations, 1.53 seconds

    Nodes    |    Current Node    |     Objective Bounds      |     Work
 Expl Unexpl |  Obj  Depth IntInf | Incumbent    BestBd   Gap | It/Node Time

     0     0  226.55394    0  132  352.00000  226.55394  35.6%     -    2s
H    0     0                     236.0000000  226.55394  4.00%     -    2s
H    0     0                     227.0000000  226.55394  0.20%     -    2s

Explored 0 nodes (1039 simplex iterations) in 3.00 seconds
Thread count was 1 (of 4 available processors)

Optimal solution found (tolerance 0.00e+00)
Best objective 2.270000000000e+02, best bound 2.270000000000e+02, gap 0.0%
Preprocessing time: 0.50 seconds
Gurobi run time: 3.00 seconds
Total run time: 3.50 seconds
Objective: 227
Solution:
1 x [i=1, i=301]
1 x [i=2, i=305]
1 x [i=3, i=299]
1 x [i=4, i=298]
2 x [i=5, i=300]
1 x [i=6, i=297]
1 x [i=7, i=295]
1 x [i=7, i=296]
1 x [i=8, i=294]
1 x [i=8, i=296]
1 x [i=9, i=293]
1 x [i=10, i=293]
2 x [i=11, i=291]
2 x [i=11, i=292]
1 x [i=12, i=291]
1 x [i=13, i=289]
1 x [i=13, i=290]
1 x [i=14, i=288]
1 x [i=15, i=287]
1 x [i=16, i=285]
1 x [i=16, i=286]
1 x [i=17, i=341, i=349]
1 x [i=18, i=284]
1 x [i=19, i=282]
1 x [i=20, i=281]
1 x [i=21, i=281]
1 x [i=22, i=336]
1 x [i=23, i=280]
2 x [i=24, i=280]
1 x [i=25, i=279]
2 x [i=26, i=279]
1 x [i=26, i=282]
1 x [i=27, i=278]
1 x [i=27, i=327, i=350]
1 x [i=28, i=340, i=343]
1 x [i=29, i=275]
1 x [i=30, i=276]
1 x [i=30, i=337]
1 x [i=31, i=274]
1 x [i=31, i=334, i=346]
1 x [i=32, i=273]
3 x [i=33, i=277]
1 x [i=34, i=273]
1 x [i=35, i=329, i=345]
1 x [i=36, i=271]
1 x [i=36, i=272]
2 x [i=37, i=270]
2 x [i=38, i=268]
1 x [i=38, i=269]
1 x [i=39, i=266]
1 x [i=40, i=262]
1 x [i=41, i=260]
1 x [i=42, i=258]
1 x [i=43, i=257]
1 x [i=43, i=265]
1 x [i=44, i=256]
1 x [i=45, i=255]
1 x [i=46, i=255]
1 x [i=47, i=252]
1 x [i=48, i=251]
1 x [i=49, i=250]
2 x [i=50, i=254]
1 x [i=51, i=249]
1 x [i=51, i=322, i=331]
1 x [i=52, i=321, i=335]
1 x [i=53, i=247]
1 x [i=53, i=248]
1 x [i=54, i=247]
1 x [i=55, i=247]
1 x [i=56, i=246]
1 x [i=57, i=246]
1 x [i=58, i=315, i=332]
1 x [i=59, i=245]
1 x [i=60, i=244]
1 x [i=60, i=313, i=333]
1 x [i=61, i=243]
1 x [i=62, i=242]
1 x [i=63, i=310, i=337]
1 x [i=63, i=312, i=332]
1 x [i=63, i=321, i=324]
1 x [i=63, i=321, i=330]
1 x [i=64, i=241]
1 x [i=64, i=305, i=342]
1 x [i=65, i=240]
1 x [i=66, i=239]
1 x [i=67, i=239]
1 x [i=68, i=302, i=339]
1 x [i=69, i=236]
1 x [i=69, i=237]
1 x [i=69, i=307, i=329]
1 x [i=70, i=234]
1 x [i=70, i=235]
1 x [i=71, i=233]
1 x [i=72, i=232]
1 x [i=72, i=301, i=338]
1 x [i=73, i=234]
1 x [i=74, i=229]
1 x [i=75, i=231]
1 x [i=76, i=228]
1 x [i=76, i=230]
1 x [i=77, i=227]
1 x [i=77, i=229]
1 x [i=77, i=303, i=328]
1 x [i=78, i=226]
1 x [i=79, i=302, i=326]
1 x [i=79, i=307, i=323]
1 x [i=80, i=308, i=320]
1 x [i=81, i=225]
1 x [i=81, i=282, i=344]
1 x [i=82, i=308, i=316]
2 x [i=83, i=224]
1 x [i=83, i=225]
1 x [i=84, i=283, i=342]
1 x [i=85, i=222]
1 x [i=85, i=223]
1 x [i=86, i=223]
1 x [i=87, i=220]
1 x [i=87, i=221]
1 x [i=88, i=220]
1 x [i=88, i=309, i=311]
1 x [i=89, i=267, i=350]
1 x [i=90, i=267, i=350]
1 x [i=91, i=263, i=351]
1 x [i=92, i=218]
1 x [i=93, i=219]
1 x [i=94, i=217]
1 x [i=95, i=216]
1 x [i=96, i=216]
1 x [i=97, i=213]
1 x [i=97, i=214]
1 x [i=98, i=212]
1 x [i=98, i=260, i=348]
1 x [i=99, i=211]
1 x [i=100, i=209]
1 x [i=100, i=210]
1 x [i=101, i=207]
1 x [i=102, i=205]
1 x [i=102, i=208]
1 x [i=103, i=206]
1 x [i=104, i=259, i=340]
1 x [i=105, i=204]
1 x [i=105, i=206]
2 x [i=105, i=208]
1 x [i=106, i=203]
1 x [i=107, i=200]
1 x [i=108, i=199]
1 x [i=109, i=201]
1 x [i=110, i=198]
1 x [i=111, i=195]
1 x [i=111, i=196]
1 x [i=112, i=195]
1 x [i=112, i=197]
1 x [i=113, i=191]
1 x [i=114, i=189]
2 x [i=115, i=190]
1 x [i=116, i=187]
1 x [i=116, i=189]
1 x [i=117, i=188]
2 x [i=118, i=192]
1 x [i=119, i=252, i=325]
1 x [i=119, i=262, i=319]
1 x [i=120, i=186]
1 x [i=120, i=264, i=317]
1 x [i=120, i=267, i=314]
1 x [i=121, i=184]
1 x [i=121, i=185]
1 x [i=122, i=183]
1 x [i=123, i=181]
1 x [i=124, i=180]
1 x [i=124, i=181]
1 x [i=125, i=180]
1 x [i=126, i=179]
1 x [i=126, i=315, i=332, i=333]
1 x [i=127, i=178]
1 x [i=128, i=265, i=310]
1 x [i=129, i=176]
1 x [i=129, i=177]
1 x [i=130, i=182]
1 x [i=131, i=173]
1 x [i=131, i=175]
1 x [i=132, i=172]
1 x [i=132, i=174]
2 x [i=133, i=175]
1 x [i=134, i=172]
1 x [i=135, i=170]
1 x [i=136, i=168]
1 x [i=137, i=170]
1 x [i=138, i=171]
1 x [i=138, i=263, i=304]
1 x [i=139, i=166]
1 x [i=140, i=167]
1 x [i=141, i=169]
1 x [i=141, i=261, i=306]
1 x [i=142, i=164]
1 x [i=142, i=238, i=322]
1 x [i=142, i=253, i=305]
1 x [i=143, i=165]
1 x [i=144, i=162]
1 x [i=145, i=163]
1 x [i=146, i=215, i=347]
1 x [i=147, i=161]
1 x [i=148, i=159]
1 x [i=148, i=160]
1 x [i=149, i=158]
1 x [i=150, i=155]
1 x [i=151, i=156]
1 x [i=152, i=157]
1 x [i=153, i=154]
1 x [i=160, i=199, i=348]
1 x [i=193, i=197, i=318]
1 x [i=193, i=216, i=301]
1 x [i=194, i=202, i=309]
